
Gurobi 5.6.3 (win64) logging started 10/07/14 10:26:24


Gurobi 5.6.3 (win64) logging started 10/07/14 10:26:41


Gurobi 5.6.3 (win64) logging started 10/07/14 10:27:08


Gurobi 5.6.3 (win64) logging started 10/07/14 10:27:50


Gurobi 5.6.3 (win64) logging started 10/07/14 14:57:33


Gurobi 5.6.3 (win64) logging started 10/07/14 14:58:25


Gurobi 5.6.3 (win64) logging started 10/07/14 15:00:05


Gurobi 5.6.3 (win64) logging started 10/07/14 16:46:08


Gurobi 5.6.3 (win64) logging started 10/07/14 16:51:24


Gurobi 5.6.3 (win64) logging started 10/07/14 16:52:26


Gurobi 5.6.3 (win64) logging started 10/07/14 16:57:26


Gurobi 5.6.3 (win64) logging started 10/07/14 17:27:46


Gurobi 5.6.3 (win64) logging started 10/07/14 17:37:43


Gurobi 5.6.3 (win64) logging started 10/07/14 17:40:03


Gurobi 5.6.3 (win64) logging started 10/07/14 17:42:36


Gurobi 5.6.3 (win64) logging started 10/07/14 17:44:12


Gurobi 5.6.3 (win64) logging started 10/07/14 17:45:04


Gurobi 5.6.3 (win64) logging started 10/07/14 17:46:00


Gurobi 5.6.3 (win64) logging started 10/07/14 17:46:28


Gurobi 5.6.3 (win64) logging started 10/07/14 17:46:49


Gurobi 5.6.3 (win64) logging started 10/07/14 17:49:02


Gurobi 5.6.3 (win64) logging started 10/07/14 18:23:09


Gurobi 5.6.3 (win64) logging started 10/07/14 18:26:29

